9223372036854775807 9223372036854775807 9223372036854775807 9223372036854775807 9223372036854775807 9223372036854775807 9223372036854775807 9223372036854775807 9223372036854775807 9223372036854775807 9223372036854775807 9223372036854775807 9223372036854775807 9223372036854775807 9223372036854775807 9223372036854775807 9223372036854775807 9223372036854775807 9223372036854775807 9223372036854775807 9223372036854775807 9223372036854775807 9223372036854775807 9223372036854775807 9223372036854775807 9223372036854775807 9223372036854775807 9223372036854775807 9223372036854775807 9223372036854775807 9223372036854775807 9223372036854775807 9223372036854775807 9223372036854775807 9223372036854775807 9223372036854775807 9223372036854775807 9223372036854775807 9223372036854775807 9223372036854775807 9223372036854775807 9223372036854775807 9223372036854775807 9223372036854775807 9223372036854775807 9223372036854775807 9223372036854775807 9223372036854775807 9223372036854775807 9223372036854775807 9223372036854775807 9223372036854775807 9223372036854775807 9223372036854775807 9223372036854775807 9223372036854775807 9223372036854775807 9223372036854775807 9223372036854775807 9223372036854775807 9223372036854775807 9223372036854775807 9223372036854775807 9223372036854775807 9223372036854775807 9223372036854775807 9223372036854775807 9223372036854775807 9223372036854775807 9223372036854775807 9223372036854775807 9223372036854775807 9223372036854775807 9223372036854775807 9223372036854775807 9223372036854775807 9223372036854775807 9223372036854775807 9223372036854775807 9223372036854775807 9223372036854775807 9223372036854775807 9223372036854775807 9223372036854775807 9223372036854775807 9223372036854775807 9223372036854775807 9223372036854775807 9223372036854775807 9223372036854775807 9223372036854775807 9223372036854775807 9223372036854775807 9223372036854775807 9223372036854775807 9223372036854775807 9223372036854775807 9223372036854775807 9223372036854775807 9223372036854775807 9223372036854775807 9223372036854775807 9223372036854775807 9223372036854775807 9223372036854775807 9223372036854775807 9223372036854775807 9223372036854775807 9223372036854775807 9223372036854775807 9223372036854775807 9223372036854775807 9223372036854775807 9223372036854775807 9223372036854775807 9223372036854775807 9223372036854775807 9223372036854775807 9223372036854775807 9223372036854775807 9223372036854775807 9223372036854775807 9223372036854775807 9223372036854775807 9223372036854775807 9223372036854775807 9223372036854775807 9223372036854775807 9223372036854775807 9223372036854775807 9223372036854775807 9223372036854775807 9223372036854775807 9223372036854775807 9223372036854775807 9223372036854775807 9223372036854775807 9223372036854775807 9223372036854775807 9223372036854775807 9223372036854775807 9223372036854775807 9223372036854775807 9223372036854775807 9223372036854775807 9223372036854775807 9223372036854775807 9223372036854775807 9223372036854775807 9223372036854775807 9223372036854775807 9223372036854775807 9223372036854775807 9223372036854775807 9223372036854775807 9223372036854775807 9223372036854775807 9223372036854775807 9223372036854775807 9223372036854775807 9223372036854775807 9223372036854775807 9223372036854775807 9223372036854775807 9223372036854775807 9223372036854775807 9223372036854775807 9223372036854775807 9223372036854775807 9223372036854775807 9223372036854775807 9223372036854775807 9223372036854775807 9223372036854775807 9223372036854775807 9223372036854775807 9223372036854775807 9223372036854775807 9223372036854775807 9223372036854775807 9223372036854775807 9223372036854775807 9223372036854775807 9223372036854775807 9223372036854775807 9223372036854775807 9223372036854775807 9223372036854775807 9223372036854775807 9223372036854775807 9223372036854775807 9223372036854775807 9223372036854775807 9223372036854775807 9223372036854775807 9223372036854775807 9223372036854775807 9223372036854775807 9223372036854775807 9223372036854775807 9223372036854775807 9223372036854775807 9223372036854775807 9223372036854775807 9223372036854775807 9223372036854775807 9223372036854775807 9223372036854775807 9223372036854775807 9223372036854775807 9223372036854775807 9223372036854775807 9223372036854775807 9223372036854775807 9223372036854775807 9223372036854775807 9223372036854775807 9223372036854775807 9223372036854775807 9223372036854775807 9223372036854775807 9223372036854775807 9223372036854775807 9223372036854775807 9223372036854775807 9223372036854775807 9223372036854775807 9223372036854775807 9223372036854775807 9223372036854775807 9223372036854775807 9223372036854775807 9223372036854775807 9223372036854775807 9223372036854775807 9223372036854775807 9223372036854775807 9223372036854775807 9223372036854775807 9223372036854775807 9223372036854775807 9223372036854775807 9223372036854775807 9223372036854775807 9223372036854775807 9223372036854775807 9223372036854775807 9223372036854775807 9223372036854775807 9223372036854775807 9223372036854775807 9223372036854775807 9223372036854775807 9223372036854775807 9223372036854775807 9223372036854775807 9223372036854775807 9223372036854775807 9223372036854775807 9223372036854775807 9223372036854775807 9223372036854775807 9223372036854775807 9223372036854775807 9223372036854775807 9223372036854775807 9223372036854775807 9223372036854775807 9223372036854775807 9223372036854775807 9223372036854775807 9223372036854775807 9223372036854775807 9223372036854775807 9223372036854775807 9223372036854775807 9223372036854775807 9223372036854775807 9223372036854775807 9223372036854775807 9223372036854775807 9223372036854775807 9223372036854775807 9223372036854775807 9223372036854775807 9223372036854775807 9223372036854775807 9223372036854775807 9223372036854775807 9223372036854775807 9223372036854775807 9223372036854775807 9223372036854775807 9223372036854775807 9223372036854775807 9223372036854775807 9223372036854775807 9223372036854775807 9223372036854775807 9223372036854775807 9223372036854775807 9223372036854775807 9223372036854775807 9223372036854775807 9223372036854775807 9223372036854775807 9223372036854775807 9223372036854775807 9223372036854775807 9223372036854775807 9223372036854775807 9223372036854775807 9223372036854775807 9223372036854775807 9223372036854775807 9223372036854775807 9223372036854775807 6314 9223372036854775807 9223372036854775807 6254 6254 6248 9223372036854775807 6237 6229 6229 6222 6215 6199 6175 6170 6167 6157 6152 6139 6136 6111 6099 6097 6096 6087 6087 6083 6079 6079 6046 6043 6039 6017 5997 5986 5962 5944 5925 5910 5910 5897 5890 5886 5880 5880 5870 5867 5865 5860 5856 5837 5822 5817 5803 5734 5703 5695 5688 5674 5674 5636 5634 5631 5623 5582 5580 5571 5562 5555 5548 5547 5544 5544 5541 5538 5535 5531 5530 5526 5505 5499 5496 5491 5481 5480 5468 5448 5437 5434 5430 5424 5417 5412 5399 5394 5392 5389 5388 5384 5379 5374 5368 5362 5360 5359 5357 5357 5354 5351 5346 5341 5279 5279 5279 5274 5272 5266 5263 5260 5255 5244 5241 5241 5237 5237 5233 5215 5214 5210 5209 5196 5194 5191 5183 5183 5179 5179 5178 5176 5166 5142 5139 5126 5120 5101 5101 5097 5097 5089 5085 5064 5058 5055 5053 5051 5051 5045 5043 5038 5034 5030 5030 5028 5026 5020 5020 5018 5017 5015 5014 5011 5011 5009 5008 5008 5006 5005 5005 5004 5003 5003 5002 5001 5000 4999 4999 4997 4995 4994 4993 4991 4991 4988 4988 4980 4980 4980 4978 4978 4977 4976 4976 4975 4975 4974 4974 4973 4973 4973 4972 4972 4971 4955 4955 4952 4952 4949 4949 4947 4945 4943 4942 4941 4940 4940 4940 4939 4939 4938 4924 4914 4914 4909 4903 4901 4895 4895 4893 4878 4878 4876 4867 4865 4865 4865 4865 4865 4863 4863 4862 4859 4857 4857 4837 4835 4835 4835 4835 4834 4834 4833 4831 4831 4830 4829 4828 4828 4827 4827 4827 4819 4819 4819 4817 4817 4816 4816 4816 4815 4815 4814 4814 4814 4814 4814 4814 4814 4809 4809 4809 4809 4809 4809 4809 4808 4808 4808 4807 4807 4807 4807 4807 4807 4807 4807 4807 4807 4807 4799 4799 4798 4797 4792 4792 4792 4791 4790 4788 4788 4786 4786 4785 4785 4785 4785 4781 4781 4781 4781 4781 4781 4780 4776 4756 4756 4756 4753 4753 4751 4750 4750 4740 4740 4740 4740 4735 4735 4730 4730 4729 4729 4729 4729 4729 4728 4728 4728 4728 4728 4727 4727 4727 4727 4727 4727 4727 4727 4727 4727 4724 4724 4724 4724 4724 4724 4724 4724 4724 4720 4720 4720 4720 4720 4720 4720 4720 4720 4720 4720 4720 4720 4720 4720 4720 4720 4720 4720 4720 4720 4720 4720 4720 4720 4720 4720 4720 4720 4720 4720 4720 4720 4720 4720 4720 4720 4720 4720 4720 4720 4720 4720 4720 4720 4720 4720 4720 4720 4720 4720 4720 4720 4720 4720 4720 4720 4720 4720 4720 4720 4720 4720 4720 4720 4720 4720 4720 4720 4720 4720 4720 4720 4720 4720 4720 4720 4720 4720 4720 4720 4720 4720 4720 4720 4720 4720 4720 4720 4720 4720 4720 4720 4720 4720 4720 4720 4720 4720 4720 4720 4720 4720 4720 4720 4720 4720 4720 4720 4720 4720 4720 4720 4720 4720 4720 4720 4720 4720 4720 4720 4720 4720 4720 4720 4720 4720 4720 4720 4720 4720 4720 4720 4720 4720 4720 4720 4720 4720 4720 4720 4720 4720 4720 4720 4720 4720 4720 4720 4720 4720 4720 4720 4720 4720 4720 4720 4720 4720 4720 4720 4720 4720 4720 4720 4720 4720 4720 4720 4720 4720 4720 4720 4720 4720 4720 4720 4720 4720 4720 4720 4720 4720 4720 4720 4720 4720 4720 4720 4720 4720 4720 4720 4720 4720 4720 4720 4720 4720 4720 4720 4720 4720 4720 4720 4720 4720 4720 4720 4720 4720 4720 4720 4720 4720 4720 4720 4720 4720 4720 4720 4720 4720 4720 4720 4720 4720 4720 4720 4720 4720 4720 4720 4720 4720 4720 4720 4720 4720 4720 4720 4720 4720 4720 4720 4720 4720 4720 4720 4720 4720 4720 4720 4720 4720 4720 4720 4720 4720 4720 4720 4720 4720 4720 4720 4720 4720 4720 4720 4720 4720 4720 4720 4720 4720 4720 4720 4720 4720 4720 4720 4720 4720 4720 4720 4720 4720 4720 4720 4720 4720 4720 4720 4720 4720 4720 4720 4720 4720 4720 4720 4720 4720 4720 4720 4720 4720 4720 4720 4720 4720 4720 4720 4720 4720 4720 4720 4720 4720 4720 4720 4720 4720 4720 4720 4720 4720 4720 4720 4720 4720 4720 4720 4720 4720 4720 4720 4720 4720 4720 4720 4720 4720 4720 4720 4720 4720 4720 4720 4720 4720 4720 4720 4720 4720 4720 4720 4720 4720 4720 4720 4720 4720 4720 4720 4720 4720 4720 4720 4720 4720 4720 4720 4720 4720 4720 4720 4720 4720 4720 4720 4720 4720 4720 4720 4720 4720 4720 4720 4720 4720 4720 4720 4720 4720 4720 4720 4720 4720 4720 4720 4720 4720 4720 4720 4720 4720 4720 4720 4720 4720 4720 4720 4720 4720 4720 4720 4720 4720 4720 4720 4720 4720 4720 4720 4720 4720 4720 4720 4720 4720 4720 4720 4720 4720 4720 4720 4720 4720 4720 4720 4720 4720 4720 4720 4720 4720 4720 4720 4720 4720 4720 4720 4720 4720 4720 4720 4720 4720 4720 4720 4720 4720 4720 4720 4720 4720 4720 4720 4720 4720 4720 4720 4720 4720 4720 4720 4720 4720 4720 4720 4720 4720 4720 4720 4720 4720 4720 4720 4720 4720 4720 4720 4720 4720 4720 4720 4720 4720 4720 4720 4720 4720 4720 4720 4720 4720 4720 4720 4720 4720 4720 4720 4720 4720 4720 4720 4720 4720 4720 4720 4720 4720 4720 4720 4720 4720 4720 4720 4720 4720 4720 4720 4720 4720 4720 4720 4720 4720 4720 4720 4720 4720 4720 4720 4720 4720 4720 4720 4720 4720 4720 4720 4720 4720 4720 4720 4720 4720 4720 4720 4720 4720 4720 4720 4720 4720 4720 4720 4720 4720 4720 4720 4720 4720 4720 4720 4720 4720 4720 4720 4720 4720 4720 4720 4720 4720 4720 4720 4720 4720 4720 4720 4720 4720 4720 4720 4720 4720 4720 4720 4720 4720 4720 4720 4720 4720 4720 4720 4720 4720 4720 4720 4720 4720 4720 4720 4720 4720 4720 4720 4720 4720 4720 4720 4720 4720 4720 4720 4720 4720 4720 4720 4720 4720 4720 4720 4720 4720 4720 4720 4720 4720 4720 4720 4720 4720 4720 4720 4720 4720 4720 4720 4720 4720 4720 4720 4720 4720 4720 4720 4720 4720 4720 4720 4720 4720 4720 4720 4720 4720 4720 4720 4720 4720 4720 4720 4720 4720 4720 4720 4720 4720 4720 4720 4720 4720 4720 4720 4720 4720 4720 4720 4720 4720 4720 4720 4720 4720 4720 4720 4720 4720 4720 4720 4720 4720 4720 4720 4720 4720 4720 4720 4720 4720 4720 4720 4720 4720 4720 4720 4720 4720 4720 4720 4720 4720 4720 4720 4720 4720 4720 4720 4720 4720 4720 4720 4720 4720 4720 4720 4720 4720 4720 4720 4720 4720 4720 4720 4720 4720 4720 4720 4720 4720 4720 4720 4720 4720 4720 4720 4720 4720 4720 4720 4720 4720 4720 4720 4720 4720 4720 4720 4720 4720 4720 4720 4720 4720 4720 4720 4720 4720 4720 4720 4720 4720 4720 4720 4720 4720 4720 4720 4720 4720 4720 4720 4720 4720 4720 4720 4720 4720 4720 4720 4720 4720 4720 4720 4720 4720 4720 4720 4720 4720 4720 4720 4720 4720 4720 4720 4720 4720 4720 4720 4720 4720 4720 4720 4720 4720 4720 4720 4720 4720 4720 4720 4720 4720 4720 4720 4720 4720 4720 4720 4720 4720 4720 4720 4720 4720 4720 4720 4720 4720 4720 4720 4720 4720 4720 4720 4720 4720 4720 4720 4720 4720 4720 4720 4720 4720 4720 4720 4720 4720 4720 4720 4720 4720 4720 4720 4720 4720 4720 4720 4720 4720 4720 4720 4720 4720 4720 4720 4720 4720 4720 4720 4720 4720 4720 4720 4720 4720 4720 4720 4720 4720 4720 4720 4720 4720 4720 4720 4720 4720 4720 4720 4720 4720 4720 4720 4720 4720 4720 4720 4720 4720 4720 4720 4720 4720 4720 4720 4720 4720 4720 4720 4720 4720 4720 4720 4720 4720 4720 4720 4720 4720 4720 4720 4720 4720 4720 4720 4720 4720 4720 4720 4720 4720 4720 4720 4720 4720 4720 4720 4720 4720 4720 4720 4720 4720 4720 4720 4720 4720 4720 4720 4720 4720 4720 4720 4720 4719 4719 4719 4719 4719 4719 4719 4719 4719 4719 4719 4719 4719 4719 4719 4719 4719 4719 4719 4719 4719 4719 4719 4719 4719 4719 4719 4719 4719 4719 4719 4719 4719 4719 4719 4719 4719 4719 4719 4719 4719 4719 4719 4719 4719 4719 4719 4719 4719 4719 4719 4719 4719 4719 4719 4719 4719 4719 4719 4719 4719 4719 4719 4719 4719 4719 4719 4719 4719 4719 4719 4719 4719 4719 4719 4719 4719 4719 4719 4719 4719 4719 4719 4719 4719 4719 4719 4719 4719 4719 4719 4719 4719 4719 4719 4719 4719 4719 4719 4719 4719 4719 4719 4719 4719 4719 4719 4719 4719 4719 4719 4719 4719 4719 4719 4719 4719 4719 4719 4719 4719 4719 4719 4719 4719 4719 4719 4719 4719 4719 4719 4719 4719 4719 4719 4719 4719 4719 4719 4719 4719 4719 4719 4719 4719 4719 4719 4719 4719 4719 4719 4719 4719 4719 4719 4719 4719 4719 4719 4719 4719 4719 4719 4719 4719 4719 4719 4719 4719 4719 4719 4719 4719 4719 4719 4719 4719 4719 4719 4719 4719 4719 4719 4719 4719 4719 4719 4719 4719 4719 4719 4719 4719 4719 4719 4719 4719 4719 4719 4719 4719 4719 4719 4719 4719 4719 4719 4719 4719 4719 4719 4719 4719 4719 4719 4719 4719 4719 4719 4719 4719 4719 4719 4719 4719 4719 4719 4719 4719 4719 4719 4719 4719 4719 4719 4719 4719 4719 4719 4719 4719 4719 4719 4719 4719 4719 4719 4719 4719 4719 4719 4719 4719 4719 4719 4719 4719 4719 4719 4719 4719 4719 4719 4719 4719 4719 4719 4719 4719 4719 4719 4719 4719 4719 4719 4719 4719 4719 4719 4719 4719 4719 4719 4719 4719 4719 4719 4719 4719 4719 4719 4719 4719 4719 4719 4719 4719 4719 4719 4719 4719 4719 4719 4719 4719 4719 4719 4719 4719 4719 4719 4719 4719 4719 4719 4719 4719 4719 4719 4719 4719 4719 4719 
0 0 0 0 0 0 0 0 0 0 0 0 0 0 0 0 0 0 0 0 0 0 0 0 0 0 0 0 0 0 0 0 0 0 0 0 0 0 0 0 0 0 0 0 0 0 0 0 0 0 0 0 0 0 0 0 0 0 0 0 0 0 0 0 0 0 0 0 0 0 0 0 0 0 0 0 0 0 0 0 0 0 0 0 0 0 0 0 0 0 0 0 0 0 0 0 0 0 0 0 0 0 0 0 0 0 0 0 0 0 0 0 0 0 0 0 0 0 0 0 0 0 0 0 0 0 0 0 0 0 0 0 0 0 0 0 0 0 0 0 0 0 0 0 0 0 0 0 0 0 0 0 0 0 0 0 0 0 0 0 0 0 0 0 0 0 0 0 0 0 0 0 0 0 0 0 0 0 0 0 0 0 0 0 0 0 0 0 0 0 0 0 0 0 0 0 0 0 0 0 0 0 0 0 0 0 0 0 0 0 0 0 0 0 0 0 0 0 0 0 0 0 0 0 0 0 0 0 0 0 0 0 0 0 0 0 0 0 0 0 0 0 0 0 0 0 0 0 0 0 0 0 0 0 0 0 0 0 0 0 0 0 0 0 0 0 0 0 0 0 0 0 0 0 0 0 0 0 0 0 0 0 0 0 0 0 0 0 0 0 0 0 0 0 0 0 0 0 0 0 0 0 0 0 0 0 0 0 0 0 0 0 0 0 0 0 0 6314 0 0 6257 6254 6249 0 6238 6232 6229 6228 6221 6211 6197 6175 6169 6169 6160 6156 6144 6139 6131 6116 6102 6096 6096 6095 6089 6084 6081 6080 6076 6052 6039 6026 6007 5996 5963 5948 5929 5910 5909 5895 5889 5888 5885 5883 5879 5877 5866 5862 5857 5850 5841 5831 5814 5801 5755 5706 5692 5686 5676 5671 5658 5631 5627 5615 5578 5572 5564 5561 5550 5547 5545 5543 5540 5538 5536 5534 5529 5524 5517 5510 5502 5495 5489 5479 5471 5458 5441 5434 5433 5426 5418 5414 5400 5396 5393 5390 5386 5382 5377 5373 5370 5365 5360 5359 5358 5357 5355 5352 5349 5346 5337 5299 5278 5273 5270 5266 5263 5260 5256 5251 5242 5240 5239 5236 5234 5230 5222 5210 5209 5205 5195 5193 5190 5185 5179 5178 5178 5176 5174 5167 5142 5124 5121 5118 5113 5100 5097 5095 5086 5080 5059 5056 5052 5052 5050 5049 5042 5037 5032 5029 5029 5029 5027 5026 5022 5018 5017 5015 5013 5010 5010 5010 5008 5006 5005 5005 5004 5004 5003 5002 5001 5000 5000 4999 4997 4996 4995 4993 4993 4991 4990 4989 4987 4985 4982 4979 4977 4977 4976 4975 4975 4975 4974 4973 4973 4973 4972 4972 4972 4971 4971 4970 4954 4951 4951 4951 4948 4947 4945 4944 4942 4941 4940 4939 4939 4939 4939 4938 4938 4930 4917 4912 4902 4902 4900 4898 4893 4891 4877 4876 4874 4866 4865 4865 4864 4864 4864 4862 4862 4861 4858 4856 4856 4852 4835 4834 4834 4834 4833 4833 4832 4830 4829 4828 4827 4827 4827 4826 4826 4826 4824 4818 4816 4816 4816 4816 4815 4815 4814 4814 4814 4814 4814 4814 4813 4813 4813 4809 4809 4809 4809 4808 4808 4808 4808 4807 4807 4807 4807 4807 4807 4807 4807 4807 4807 4806 4806 4806 4800 4797 4797 4796 4793 4791 4790 4790 4789 4788 4785 4785 4785 4785 4784 4784 4784 4782 4781 4781 4780 4780 4780 4780 4776 4755 4755 4754 4752 4752 4750 4750 4748 4740 4739 4739 4739 4734 4733 4729 4729 4729 4729 4728 4728 4728 4728 4728 4727 4727 4727 4727 4727 4727 4727 4727 4727 4727 4726 4726 4726 4724 4724 4724 4724 4724 4724 4723 4723 4723 4720 4720 4720 4720 4720 4720 4720 4720 4720 4720 4720 4720 4720 4720 4720 4720 4720 4720 4720 4720 4720 4720 4720 4720 4720 4720 4720 4720 4720 4720 4720 4720 4720 4720 4720 4720 4720 4720 4720 4720 4720 4720 4720 4720 4720 4720 4720 4720 4720 4720 4720 4720 4720 4720 4720 4720 4720 4720 4720 4720 4720 4720 4720 4720 4720 4720 4720 4720 4720 4720 4720 4720 4720 4720 4720 4720 4720 4720 4720 4720 4720 4720 4720 4720 4720 4720 4720 4720 4720 4720 4720 4720 4720 4720 4720 4720 4720 4720 4720 4720 4720 4720 4720 4720 4720 4720 4720 4720 4720 4720 4720 4720 4720 4720 4720 4720 4720 4720 4720 4720 4720 4720 4720 4720 4720 4720 4720 4720 4720 4720 4720 4720 4720 4720 4720 4720 4720 4720 4720 4720 4720 4720 4720 4720 4720 4720 4720 4720 4720 4720 4720 4720 4720 4720 4720 4720 4720 4720 4720 4720 4720 4720 4720 4720 4720 4720 4720 4720 4720 4720 4720 4720 4720 4720 4720 4720 4720 4720 4720 4720 4720 4720 4720 4720 4720 4720 4720 4720 4720 4720 4720 4720 4720 4720 4720 4720 4720 4720 4720 4720 4720 4720 4720 4720 4720 4720 4720 4720 4720 4720 4720 4720 4720 4720 4720 4720 4720 4720 4720 4720 4720 4720 4720 4720 4720 4720 4720 4720 4720 4720 4720 4720 4720 4720 4720 4720 4720 4720 4720 4720 4720 4720 4720 4720 4720 4720 4720 4720 4720 4720 4720 4720 4720 4720 4720 4720 4720 4720 4720 4720 4720 4720 4720 4720 4720 4720 4720 4720 4720 4720 4720 4720 4720 4720 4720 4720 4720 4720 4720 4720 4720 4720 4720 4720 4720 4720 4720 4720 4720 4720 4720 4720 4720 4720 4720 4720 4720 4720 4720 4720 4720 4720 4720 4720 4720 4720 4720 4720 4720 4720 4720 4720 4720 4720 4720 4720 4720 4720 4720 4720 4720 4720 4720 4720 4720 4720 4720 4720 4720 4720 4720 4720 4720 4720 4720 4720 4720 4720 4720 4720 4720 4720 4720 4720 4720 4720 4720 4720 4720 4720 4720 4720 4720 4720 4720 4720 4720 4720 4720 4720 4720 4720 4720 4720 4720 4720 4720 4720 4720 4720 4720 4720 4720 4720 4720 4720 4720 4720 4720 4720 4720 4720 4720 4720 4720 4720 4720 4720 4720 4720 4720 4720 4720 4720 4720 4720 4720 4720 4720 4720 4720 4720 4720 4720 4720 4720 4720 4720 4720 4720 4720 4720 4720 4720 4720 4720 4720 4720 4720 4720 4720 4720 4720 4720 4720 4720 4720 4720 4720 4720 4720 4720 4720 4720 4720 4720 4720 4720 4720 4720 4720 4720 4720 4720 4720 4720 4720 4720 4720 4720 4720 4720 4720 4720 4720 4720 4720 4720 4720 4720 4720 4720 4720 4720 4720 4720 4720 4720 4720 4720 4720 4720 4720 4720 4720 4720 4720 4720 4720 4720 4720 4720 4720 4720 4720 4720 4720 4720 4720 4720 4720 4720 4720 4720 4720 4720 4720 4720 4720 4720 4720 4720 4720 4720 4720 4720 4720 4720 4720 4720 4720 4720 4720 4720 4720 4720 4720 4720 4720 4720 4720 4720 4720 4720 4720 4720 4720 4720 4720 4720 4720 4720 4720 4720 4720 4720 4720 4720 4720 4720 4720 4720 4720 4720 4720 4720 4720 4720 4720 4720 4720 4720 4720 4720 4720 4720 4720 4720 4720 4720 4720 4720 4720 4720 4720 4720 4720 4720 4720 4720 4720 4720 4720 4720 4720 4720 4720 4720 4720 4720 4720 4720 4720 4720 4720 4720 4720 4720 4720 4720 4720 4720 4720 4720 4720 4720 4720 4720 4720 4720 4720 4720 4720 4720 4720 4720 4720 4720 4720 4720 4720 4720 4720 4720 4720 4720 4720 4720 4720 4720 4720 4720 4720 4720 4720 4720 4720 4720 4720 4720 4720 4720 4720 4720 4720 4720 4720 4720 4720 4720 4720 4720 4720 4720 4720 4720 4720 4720 4720 4720 4720 4720 4720 4720 4720 4720 4720 4720 4720 4720 4720 4720 4720 4720 4720 4720 4720 4720 4720 4720 4720 4720 4720 4720 4720 4720 4720 4720 4720 4720 4720 4720 4720 4720 4720 4720 4720 4720 4720 4720 4720 4720 4720 4720 4720 4720 4720 4720 4720 4720 4720 4720 4720 4720 4720 4720 4720 4720 4720 4720 4720 4720 4720 4720 4720 4720 4720 4720 4720 4720 4720 4720 4720 4720 4720 4720 4720 4720 4720 4720 4720 4720 4720 4720 4720 4720 4720 4720 4720 4720 4720 4720 4720 4720 4720 4720 4720 4720 4720 4720 4720 4720 4720 4720 4720 4720 4720 4720 4720 4720 4720 4720 4720 4720 4720 4720 4720 4720 4720 4720 4720 4720 4720 4720 4720 4720 4720 4720 4720 4720 4720 4720 4720 4720 4720 4720 4720 4720 4720 4720 4720 4720 4720 4720 4720 4720 4720 4720 4720 4720 4720 4720 4720 4720 4720 4720 4720 4720 4720 4720 4720 4720 4720 4720 4720 4720 4720 4720 4720 4720 4720 4720 4720 4720 4720 4720 4720 4720 4720 4720 4720 4720 4720 4720 4720 4720 4720 4720 4720 4720 4720 4720 4720 4720 4720 4720 4720 4720 4720 4720 4720 4720 4720 4720 4720 4720 4720 4720 4720 4720 4720 4720 4720 4720 4720 4720 4720 4720 4720 4720 4720 4720 4720 4720 4720 4720 4720 4720 4720 4720 4720 4720 4720 4720 4720 4720 4720 4720 4720 4720 4720 4720 4720 4720 4720 4720 4720 4720 4720 4720 4720 4720 4720 4720 4720 4720 4720 4720 4720 4720 4720 4720 4720 4720 4720 4720 4720 4720 4720 4720 4720 4720 4720 4720 4720 4720 4720 4720 4720 4720 4720 4720 4720 4720 4720 4720 4720 4720 4720 4720 4720 4720 4720 4720 4720 4720 4720 4720 4720 4720 4720 4720 4720 4720 4720 4720 4720 4720 4720 4720 4720 4720 4720 4720 4720 4720 4720 4720 4720 4720 4720 4720 4720 4720 4720 4720 4720 4720 4720 4719 4719 4719 4719 4719 4719 4719 4719 4719 4719 4719 4719 4719 4719 4719 4719 4719 4719 4719 4719 4719 4719 4719 4719 4719 4719 4719 4719 4719 4719 4719 4719 4719 4719 4719 4719 4719 4719 4719 4719 4719 4719 4719 4719 4719 4719 4719 4719 4719 4719 4719 4719 4719 4719 4719 4719 4719 4719 4719 4719 4719 4719 4719 4719 4719 4719 4719 4719 4719 4719 4719 4719 4719 4719 4719 4719 4719 4719 4719 4719 4719 4719 4719 4719 4719 4719 4719 4719 4719 4719 4719 4719 4719 4719 4719 4719 4719 4719 4719 4719 4719 4719 4719 4719 4719 4719 4719 4719 4719 4719 4719 4719 4719 4719 4719 4719 4719 4719 4719 4719 4719 4719 4719 4719 4719 4719 4719 4719 4719 4719 4719 4719 4719 4719 4719 4719 4719 4719 4719 4719 4719 4719 4719 4719 4719 4719 4719 4719 4719 4719 4719 4719 4719 4719 4719 4719 4719 4719 4719 4719 4719 4719 4719 4719 4719 4719 4719 4719 4719 4719 4719 4719 4719 4719 4719 4719 4719 4719 4719 4719 4719 4719 4719 4719 4719 4719 4719 4719 4719 4719 4719 4719 4719 4719 4719 4719 4719 4719 4719 4719 4719 4719 4719 4719 4719 4719 4719 4719 4719 4719 4719 4719 4719 4719 4719 4719 4719 4719 4719 4719 4719 4719 4719 4719 4719 4719 4719 4719 4719 4719 4719 4719 4719 4719 4719 4719 4719 4719 4719 4719 4719 4719 4719 4719 4719 4719 4719 4719 4719 4719 4719 4719 4719 4719 4719 4719 4719 4719 4719 4719 4719 4719 4719 4719 4719 4719 4719 4719 4719 4719 4719 4719 4719 4719 4719 4719 4719 4719 4719 4719 4719 4719 4719 4719 4719 4719 4719 4719 4719 4719 4719 4719 4719 4719 4719 4719 4719 4719 4719 4719 4719 4719 4719 4719 4719 4719 4719 4719 4719 4719 4719 4719 4719 4719 4719 4719 4719 4719 4719 4719 4719 4719 4719 